357 359 360 401 400 399 398 397 407 408 406 405 404 403 402 356 412 411 410 418 417 419 420 421 422 423 424 425 426 427 428 429 430 437 438 436 435 434 433 432 431 382 383 384 409 385 386 387 388 389 390 381 392 391 393 394 395 396 371 372 370 369 368 365 367 366 329 328 327 326 325 324 323 322 373 374 375 376 379 380 378 377 315 314 316 313 312 311 451 450 441 440 449 448 447 446 445 444 443 442 439 454 455 456 457 458 460 459 452 453 500 499 461 462 463 464 465 466 467 571 572 573 0 1 2 3 4 5 6 7 8 9 10 11 14 15 16 17 18 19 20 568 569 570 474 468 469 470 471 472 473 475 476 477 478 479 480 481 482 483 485 484 536 537 539 538 540 176 177 178 187 188 186 185 184 183 182 179 181 180 169 171 175 174 173 108 109 107 542 541 543 544 547 546 545 548 549 560 561 562 563 564 565 566 567 27 26 25 24 21 13 12 23 22 28 29 31 30 32 33 34 35 36 37 38 40 41 39 42 43 44 45 46 47 48 49 54 52 50 51 84 85 86 87 90 89 88 78 79 80 81 82 83 53 55 56 57 58 59 60 61 63 62 64 76 77 75 74 73 119 120 121 118 95 96 97 94 93 92 91 555 556 557 558 559 550 551 101 102 100 99 552 553 554 98 103 104 105 106 115 116 117 122 123 71 72 65 66 67 68 70 69 124 125 126 127 128 129 130 131 132 133 134 137 138 139 140 136 135 144 143 142 141 151 150 149 152 148 147 146 145 158 157 153 155 156 159 160 161 113 112 114 111 110 172 170 168 162 163 167 166 164 154 165 203 204 202 201 200 199 198 208 207 206 205 197 196 195 194 209 210 211 212 213 214 215 216 217 223 224 222 221 220 218 219 193 192 191 190 226 225 189 227 228 229 230 231 533 532 531 489 488 534 535 487 486 490 491 492 493 525 524 494 495 518 519 496 497 498 501 502 503 504 310 309 308 505 307 303 304 306 305 318 317 321 320 319 300 241 301 302 508 507 506 509 510 511 512 527 513 514 515 516 517 520 521 522 523 526 528 529 530 233 232 234 235 236 237 240 239 238 246 247 245 244 243 242 248 249 250 251 252 254 253 255 256 257 260 261 259 258 262 263 264 266 265 299 298 297 296 295 294 293 270 269 268 267 271 272 273 274 275 292 291 290 289 288 276 277 278 279 282 281 280 287 286 285 284 283 334 335 336 337 338 339 333 332 331 330 340 341 342 343 344 345 346 364 363 361 362 347 348 358 349 350 351 415 416 414 413 352 353 354 355